96
Nafion single chain generated via Julia
C      0.000000     0.888804     0.000000
F      0.000000     1.888804     1.000000
F      0.000000    -0.111196    -1.000000
C      1.257628     0.000000     0.000000
F      1.257628     1.000000     1.000000
F      1.257628    -1.000000    -1.000000
C      2.515256     0.888804     0.000000
F      2.515256     1.888804     1.000000
F      2.515256    -0.111196    -1.000000
C      3.772884     0.000000     0.000000
F      3.772884     1.000000     1.000000
F      3.772884    -1.000000    -1.000000
C      5.030512     0.888804     0.000000
F      5.030512     1.888804     1.000000
F      5.030512    -0.111196    -1.000000
O      5.030512     2.288804     0.000000
C      5.030512     3.688804     0.000000
F      6.030512     3.688804     1.000000
F      4.030512     3.688804    -1.000000
S      5.030512     5.388804     0.000000
O      6.230512     5.388804     1.000000
O      3.830512     5.388804    -1.000000
O      5.030512     5.388804    -1.500000
H      5.030512     6.088804    -1.500000
C      6.288140     0.000000     0.000000
F      6.288140     1.000000     1.000000
F      6.288140    -1.000000    -1.000000
C      7.545768     0.888804     0.000000
F      7.545768     1.888804     1.000000
F      7.545768    -0.111196    -1.000000
C      8.803396     0.000000     0.000000
F      8.803396     1.000000     1.000000
F      8.803396    -1.000000    -1.000000
C     10.061024     0.888804     0.000000
F     10.061024     1.888804     1.000000
F     10.061024    -0.111196    -1.000000
C     11.318652     0.000000     0.000000
F     11.318652     1.000000     1.000000
F     11.318652    -1.000000    -1.000000
O     11.318652     1.400000     0.000000
C     11.318652     2.800000     0.000000
F     12.318652     2.800000     1.000000
F     10.318652     2.800000    -1.000000
S     11.318652     4.500000     0.000000
O     12.518652     4.500000     1.000000
O     10.118652     4.500000    -1.000000
O     11.318652     4.500000    -1.500000
H     11.318652     5.200000    -1.500000
C     12.576280     0.888804     0.000000
F     12.576280     1.888804     1.000000
F     12.576280    -0.111196    -1.000000
C     13.833908     0.000000     0.000000
F     13.833908     1.000000     1.000000
F     13.833908    -1.000000    -1.000000
C     15.091536     0.888804     0.000000
F     15.091536     1.888804     1.000000
F     15.091536    -0.111196    -1.000000
C     16.349164     0.000000     0.000000
F     16.349164     1.000000     1.000000
F     16.349164    -1.000000    -1.000000
C     17.606792     0.888804     0.000000
F     17.606792     1.888804     1.000000
F     17.606792    -0.111196    -1.000000
O     17.606792     2.288804     0.000000
C     17.606792     3.688804     0.000000
F     18.606792     3.688804     1.000000
F     16.606792     3.688804    -1.000000
S     17.606792     5.388804     0.000000
O     18.806792     5.388804     1.000000
O     16.406792     5.388804    -1.000000
O     17.606792     5.388804    -1.500000
H     17.606792     6.088804    -1.500000
C     18.864420     0.000000     0.000000
F     18.864420     1.000000     1.000000
F     18.864420    -1.000000    -1.000000
C     20.122048     0.888804     0.000000
F     20.122048     1.888804     1.000000
F     20.122048    -0.111196    -1.000000
C     21.379676     0.000000     0.000000
F     21.379676     1.000000     1.000000
F     21.379676    -1.000000    -1.000000
C     22.637304     0.888804     0.000000
F     22.637304     1.888804     1.000000
F     22.637304    -0.111196    -1.000000
C     23.894932     0.000000     0.000000
F     23.894932     1.000000     1.000000
F     23.894932    -1.000000    -1.000000
O     23.894932     1.400000     0.000000
C     23.894932     2.800000     0.000000
F     24.894932     2.800000     1.000000
F     22.894932     2.800000    -1.000000
S     23.894932     4.500000     0.000000
O     25.094932     4.500000     1.000000
O     22.694932     4.500000    -1.000000
O     23.894932     4.500000    -1.500000
H     23.894932     5.200000    -1.500000
